(set-info :smt-lib-version 2.6)
(set-logic QF_FP)
(set-option :produce-models true)
(set-info :source |Random FP created by PyMPF|)
(set-info :license |https://www.gnu.org/licenses/gpl-3.0.html|)
(set-info :category random)
(set-info :status sat)
(declare-const x Float32)
(assert (= x (fp #b1 #b11111111 #b00000000000000000000000)))
;; x should be Float32(-oo)

(declare-const y Float32)
(assert (= y (fp #b0 #b00110100 #b00111001011111111010011)))
;; y should be Float32(0x1A1CBFD3 [Rational(10272723, 316912650057057350374175801344), 0.000000])

(declare-const result Float32)
(assert (= result (fp.min x y)))
(assert (= result (_ -oo 8 24)))
(check-sat)
(exit)
